 O Cu 
 1.0000000000000000
    15.0000000000000000    0.0000000000000000    0.0000000000000000
     0.0000000000000000   15.0000000000000000    0.0000000000000000
     0.0000000000000000    0.0000000000000000   15.0000000000000000
   O  Cu
  10  12
Cartesian
  3.4544854105691569 14.1503635989191388  1.3123534165263728
  3.6207628325332082  2.4961737733318237  3.0108078863075409
  5.9546908979760280  5.3585144880753468  3.3965833986276142
  8.3136679643714917  1.7998062895102116  1.2138187261028626
  6.7984459949349318  1.9847722761141828  4.4667657433003072
  3.7674817446041402  0.1402953357653365  3.9308702000414231
  3.3140130468304454  1.5719926187867728  0.5634636086283568
  4.1958824289335475  0.5134342346182422 13.1130175844718018
  5.6077440029431607  5.4698068885702043  2.0117534598091202
  7.3479749100052931  4.6943551465269211 14.5265421566639059
  4.5134109820419965  2.2789476184594579 13.2039945297805037
  3.4770666117036990 15.6905180988808546  2.2267191825776331
  5.1179791525697231  1.3022070234865124  4.1018084313567300
  2.1647228845535951  3.3134046608226111  2.2641513758666343
  7.5480858478602846  1.8211833484001825  2.7990365570174345
  3.5712006443597559  3.3932622034192499  0.2367629040625760
  7.8978642777714771  3.2329585465014410  0.3092588615638909
  3.7101598843241637  4.4737187972809993 13.0736597887790733
  4.5879288874471120  3.9894565009333465  2.4366603050090525
  5.6208383696665525  4.2393246348661311 14.4369341861266882
  6.4873430187360626  3.7465265699812895  4.1348006755378686
  3.8484278433044783 14.8798833338460135 14.7348549562391735
