PREC=LOW
EDIFF=1e-2
EDIFFG=1e-1
NSW=65
ISIF=4
IBRION=2
POTIM=0.02
ISMEAR=1
SIGMA=0.10
