PREC=NORMAL
EDIFF=1e-3
EDIFFG=1e-2
NSW=65
ISIF=3
IBRION=2
POTIM=0.02
ISMEAR=1
SIGMA=0.07
