PREC=NORMAL
EDIFF=1e-3
EDIFFG=1e-2
NSW=55
ISIF=4
IBRION=1
POTIM=0.30
ISMEAR=1
SIGMA=0.08
